
Gurobi 12.0.3 (linux64) logging started Mon Aug 18 01:12:30 2025

Set parameter LogFile to value "logs/instance-03.txt"
Gurobi Optimizer version 12.0.3 build v12.0.3rc0 (linux64 - "Ubuntu 24.04.3 LTS")

CPU model: Intel(R) Core(TM) i5-8250U CPU @ 1.60GHz, instruction set [SSE2|AVX|AVX2]
Thread count: 4 physical cores, 8 logical processors, using up to 8 threads

Non-default parameters:
TimeLimit  900

Optimize a model with 925 rows, 325 columns and 2414 nonzeros
Model fingerprint: 0x6f9d0c2d
Variable types: 300 continuous, 25 integer (25 binary)
Coefficient statistics:
  Matrix range     [1e+00, 1e+00]
  Objective range  [1e+00, 1e+01]
  Bounds range     [1e+00, 1e+00]
  RHS range        [1e+00, 1e+00]
Found heuristic solution: objective 56.0000000
Presolve removed 466 rows and 10 columns
Presolve time: 0.01s
Presolved: 459 rows, 315 columns, 1259 nonzeros
Variable types: 290 continuous, 25 integer (25 binary)

Root relaxation: objective 4.240000e+02, 228 iterations, 0.01 seconds (0.00 work units)

    Nodes    |    Current Node    |     Objective Bounds      |     Work
 Expl Unexpl |  Obj  Depth IntInf | Incumbent    BestBd   Gap | It/Node Time

     0     0  424.00000    0   25   56.00000  424.00000   657%     -    0s
H    0     0                      96.0000000  424.00000   342%     -    0s
H    0     0                     184.0000000  424.00000   130%     -    0s
     0     0  213.02597    0   18  184.00000  213.02597  15.8%     -    0s
H    0     0                     191.0000000  213.00000  11.5%     -    0s
*    0     0               0     213.0000000  213.00000  0.00%     -    0s

Cutting planes:
  Gomory: 2
  MIR: 2
  Flow cover: 20
  RLT: 81
  BQP: 333

Explored 1 nodes (1047 simplex iterations) in 0.19 seconds (0.08 work units)
Thread count was 8 (of 8 available processors)

Solution count 5: 213 191 184 ... 56

Optimal solution found (tolerance 1.00e-04)
Best objective 2.130000000000e+02, best bound 2.130000000000e+02, gap 0.0000%
